;; Mutation-Based Equivalence Benchmark
;; Source:     AutomatArk / instance13676.smt2
;; Mutations:  bound_upper_inc, range_shrink_hi
;; Status:     sat
;;
;; Original regex vs mutated regex
;; Equivalence check: unsat ⟺ L(R1) = L(R2)

(set-info :smt-lib-version 2.6)
(set-info :category "mutation")
(set-info :status sat)
(set-logic QF_S)


;; R1: original
;; R2: mutated (bound_upper_inc, range_shrink_hi)
(assert
  (not
    (=
      (re.union (re.++ (re.range "0" "9") (re.opt (str.to_re "%"))) (re.++ (str.to_re "1") (re.range "0" "9") (re.opt (str.to_re "%"))) (re.++ (str.to_re "2") (re.range "0" "9") (re.opt (str.to_re "%"))) (re.++ (str.to_re "3") (re.range "0" "5") (re.opt (str.to_re "%"))) (re.++ (re.range "0" "9") (str.to_re ".") ((_ re.loop 1 2) (re.range "0" "9")) (re.opt (str.to_re "%"))) (re.++ (str.to_re "1") (re.range "0" "9") (str.to_re ".") ((_ re.loop 1 2) (re.range "0" "9")) (re.opt (str.to_re "%"))) (re.++ (str.to_re "2") (re.range "0" "9") (str.to_re ".") ((_ re.loop 1 2) (re.range "0" "9")) (re.opt (str.to_re "%"))) (re.++ (str.to_re "3") (re.range "0" "4") (str.to_re ".") ((_ re.loop 1 2) (re.range "0" "9")) (re.opt (str.to_re "%"))) (re.++ (str.to_re "35") (re.opt (str.to_re "%")) (str.to_re "\u{a}")))
      (re.union (re.++ (re.range "0" "9") (re.opt (str.to_re "%"))) (re.++ (str.to_re "1") (re.range "0" "9") (re.opt (str.to_re "%"))) (re.++ (str.to_re "2") (re.range "0" "9") (re.opt (str.to_re "%"))) (re.++ (str.to_re "3") (re.range "0" "5") (re.opt (str.to_re "%"))) (re.++ (re.range "0" "9") (str.to_re ".") ((_ re.loop 1 2) (re.range "0" "8")) (re.opt (str.to_re "%"))) (re.++ (str.to_re "1") (re.range "0" "9") (str.to_re ".") ((_ re.loop 1 2) (re.range "0" "9")) (re.opt (str.to_re "%"))) (re.++ (str.to_re "2") (re.range "0" "9") (str.to_re ".") ((_ re.loop 1 3) (re.range "0" "9")) (re.opt (str.to_re "%"))) (re.++ (str.to_re "3") (re.range "0" "4") (str.to_re ".") ((_ re.loop 1 2) (re.range "0" "9")) (re.opt (str.to_re "%"))) (re.++ (str.to_re "35") (re.opt (str.to_re "%")) (str.to_re "\u{a}"))))))

(check-sat)
(exit)
